w = 27;
n = 21;
measures = [|4, 20,
|4, 19,
|3, 21,
|3, 20,
|3, 19,
|4, 14,
|3, 12,
|3, 11,
|4, 8,
|3, 10,
|4, 7,
|3, 9,
|3, 8,
|4, 6,
|3, 7,
|3, 6,
|4, 4,
|3, 5,
|3, 4,
|4, 3,
|3, 3,
|];
initial_x = [0, 4, 8, 11, 14, 17, 21, 24, 0, 4, 7, 11, 14, 17, 21, 24, 0, 4, 7, 10, 14];
initial_y = [0, 0, 0, 0, 0, 0, 0, 0, 21, 21, 21, 21, 21, 21, 21, 21, 31, 31, 31, 31, 31];